n = 30;
lu = [|-875, 61
      |-670, 664
      |-612, -96
      |-812, 500
      |-670, -616
      |-426, 196
      |557, 651
      |-615, -599
      |-833, 616
      |-776, 456
      |-621, -427
      |197, 599
      |16, 177
      |-481, -56
      |-710, 314
      |-859, -659
      |-75, 677
      |-494, -201
      |-479, -224
      |-153, -98
      |-396, 322
      |-470, 582
      |-456, -48
      |297, 457
      |-778, 221
      |-795, 817
      |-532, -172
      |-625, -483
      |-598, 812
      |-130, 730|];
